language ESSENCE' 1.0

letting fixed be 
[
    [0,0,0,0,0,0,0,0,0],
    [9,0,4,6,0,7,0,0,0],
    [0,7,6,8,0,4,1,0,0],
    [3,0,9,7,0,1,0,8,0],
    [7,0,8,0,0,0,3,0,1],
    [0,5,1,3,0,8,7,0,2],
    [0,0,7,5,0,2,6,1,0],
    [0,0,5,4,0,3,2,0,8],
    [0,0,0,0,0,0,0,0,0]
]